100
32
14
1
4
31
3
15
26
8
9
9
3
10
1
16
5
1
19
2
3
1
3
1
1
1
17
4
20
1
1
1
1
2
3
3
1
1
2
1
2
17
4
3
1
3
1
1
1
3
17
1
2
3
6
2
2
1
1
3
18
2
2
1
1
2
28
1
1
2
1
1
3
3
1
1
2
1
1
2
18
1
1
1
3
3
18
1
6
1
1
2
1
2
1
2
17
2
1
2
1
1